56 80
1 6 2
4 1 1
4 8 2
3 1 2
10 9 3
3 6 1
10 6 2
3 8 3
7 5 4
3 2 1
1 7 1
7 4 2
1 8 2
4 7 3
3 4 1
5 5 1
4 5 2
4 2 1
8 9 3
9 10 2
8 10 1
2 8 1
4 3 1
10 10 1
6 8 1
6 5 1
3 3 1
8 8 1
3 9 1
2 7 1
6 9 1
5 3 1
7 1 2
3 7 1
7 6 1
7 2 1
2 1 2
1 3 1
7 8 1
2 4 1
10 4 1
6 10 1
10 7 2
6 3 1
3 5 2
4 9 1
10 5 1
8 5 2
9 4 1
6 2 1
2 6 1
6 7 1
7 7 1
6 6 1
6 1 1
5 2 1
10 10 
10 10 
10 10 
10 10 
10 10 
10 10 
10 10 
10 10 
10 10 
10 10 
10 10 
10 10 
10 10 
10 10 
10 10 
10 10 
10 10 
10 10 
10 10 
10 10 
10 10 
10 10 
10 10 
10 10 
10 10 
10 10 
10 10 
10 10 
10 10 
10 10 
10 10 
10 10 
10 10 
10 10 
10 10 
10 10 
10 10 
10 10 
10 10 
10 10 
10 10 
10 10 
10 10 
10 10 
10 10 
10 10 
10 10 
10 10 
10 10 
10 10 
10 10 
10 10 
10 10 
10 10 
10 10 
10 10 
10 10 
10 10 
10 10 
10 10 
10 10 
10 10 
10 10 
10 10 
10 10 
10 10 
10 10 
10 10 
10 10 
10 10 
10 10 
10 10 
10 10 
10 10 
10 10 
10 10 
10 10 
10 10 
10 10 
10 10 
